c generated by sgen
p cnf 45 100
-2 -3 -4 0
-1 -3 -4 0
-1 -2 -4 0
-1 -2 -3 0
-6 -7 -8 0
-5 -7 -8 0
-5 -6 -8 0
-5 -6 -7 0
-10 -11 -12 0
-9 -11 -12 0
-9 -10 -12 0
-9 -10 -11 0
-14 -15 -16 0
-13 -15 -16 0
-13 -14 -16 0
-13 -14 -15 0
-18 -19 -20 0
-17 -19 -20 0
-17 -18 -20 0
-17 -18 -19 0
-22 -23 -24 0
-21 -23 -24 0
-21 -22 -24 0
-21 -22 -23 0
-26 -27 -28 0
-25 -27 -28 0
-25 -26 -28 0
-25 -26 -27 0
-30 -31 -32 0
-29 -31 -32 0
-29 -30 -32 0
-29 -30 -31 0
-34 -35 -36 0
-33 -35 -36 0
-33 -34 -36 0
-33 -34 -35 0
-38 -39 -40 0
-37 -39 -40 0
-37 -38 -40 0
-37 -38 -39 0
-41 -42 -43 0
-41 -42 -44 0
-41 -42 -45 0
-41 -43 -44 0
-41 -43 -45 0
-41 -44 -45 0
-42 -43 -44 0
-42 -43 -45 0
-42 -44 -45 0
-43 -44 -45 0
29 2 8 0
38 2 8 0
38 29 8 0
38 29 2 0
26 43 36 0
23 43 36 0
23 26 36 0
23 26 43 0
10 24 28 0
39 24 28 0
39 10 28 0
39 10 24 0
34 37 20 0
14 37 20 0
14 34 20 0
14 34 37 0
25 41 17 0
31 41 17 0
31 25 17 0
31 25 41 0
9 40 6 0
42 40 6 0
42 9 6 0
42 9 40 0
21 16 44 0
1 16 44 0
1 21 44 0
1 21 16 0
18 35 4 0
12 35 4 0
12 18 4 0
12 18 35 0
5 22 33 0
30 22 33 0
30 5 33 0
30 5 22 0
32 13 45 0
11 13 45 0
11 32 45 0
11 32 13 0
27 15 7 0
27 15 3 0
27 15 19 0
27 7 3 0
27 7 19 0
27 3 19 0
15 7 3 0
15 7 19 0
15 3 19 0
7 3 19 0
